Copyright (C) 2013-2015, Filipe Brandao
Build (method = -2)
  #dp: 8559
  Step-3' Graph: 124 vertices and 2682 arcs (0.01s)
  Step-4' Graph: 114 vertices and 2662 arcs (0.01s)
  #V4/#V3 = 0.92
  #A4/#A3 = 0.99
Ready! (0.01s)
Optimize a model with 235 rows, 2663 columns and 7768 nonzeros
Found heuristic solution: objective 778
Presolve removed 64 rows and 77 columns
Presolve time: 0.01s
Presolved: 171 rows, 2586 columns, 7550 nonzeros
Variable types: 0 continuous, 2586 integer (0 binary)
Optimize a model with 171 rows, 2586 columns and 7550 nonzeros
Presolved: 171 rows, 2586 columns, 7550 nonzeros

Root barrier log...

Ordering time: 0.00s

Barrier statistics:
 AA' NZ     : 3.976e+03
 Factor NZ  : 7.617e+03 (roughly 1 MByte of memory)
 Factor Ops : 4.613e+05 (less than 1 second per iteration)
 Threads    : 1

                  Objective                Residual
Iter       Primal          Dual         Primal    Dual     Compl     Time
   0   1.37295400e+04 -8.70901527e+04  2.28e+05 2.22e-16  1.48e+02     0s
   1   4.36491489e+03 -2.68922104e+04  4.03e+04 6.66e-16  2.79e+01     0s
   2   1.34775454e+03 -1.00025521e+04  4.27e+03 5.77e-15  4.13e+00     0s
   3   9.93030928e+02 -1.86655505e+03  2.30e+02 4.57e-04  6.11e-01     0s
   4   9.30861317e+02 -8.55480763e+02  1.20e+02 4.33e-15  3.68e-01     0s
   5   8.00555822e+02 -2.00078526e+02  5.16e+01 2.00e-15  2.01e-01     0s
   6   6.67322711e+02  2.10954272e+02  2.03e+01 1.33e-15  9.02e-02     0s
   7   6.26586503e+02  2.69489760e+02  1.26e+01 1.11e-15  7.00e-02     0s
   8   5.82785719e+02  3.48823269e+02  7.24e+00 9.99e-16  4.56e-02     0s
   9   5.36007053e+02  4.03527087e+02  2.30e+00 7.89e-16  2.56e-02     0s
  10   5.25045438e+02  4.81567153e+02  1.32e+00 7.77e-16  8.48e-03     0s
  11   5.10412437e+02  5.07354298e+02  1.03e-01 6.73e-16  5.99e-04     0s
  12   5.09574599e+02  5.09350595e+02  4.05e-03 6.20e-16  4.35e-05     0s
  13   5.09500363e+02  5.09499796e+02  1.42e-05 6.46e-16  1.11e-07     0s
  14   5.09500000e+02  5.09500000e+02  4.73e-11 8.41e-16  1.11e-13     0s

Barrier solved model in 14 iterations and 0.02 seconds
Optimal objective 5.09500000e+02


Root relaxation: objective 5.095000e+02, 962 iterations, 0.02 seconds

    Nodes    |    Current Node    |     Objective Bounds      |     Work
 Expl Unexpl |  Obj  Depth IntInf | Incumbent    BestBd   Gap | It/Node Time

     0     0  509.50000    0    2  778.00000  509.50000  34.5%     -    0s
H    0     0                     510.0000000  509.50000  0.10%     -    0s

Explored 0 nodes (1096 simplex iterations) in 0.04 seconds
Thread count was 1 (of 4 available processors)

Optimal solution found (tolerance 0.00e+00)
Best objective 5.100000000000e+02, best bound 5.100000000000e+02, gap 0.0%
Preprocessing time: 0.01 seconds
Gurobi run time: 0.04 seconds
Total run time: 0.05 seconds
Objective: 510
Solution:
3 x [i=1]
4 x [i=1, i=121]
4 x [i=2, i=120]
12 x [i=3]
12 x [i=4, i=119]
10 x [i=5, i=118]
11 x [i=6, i=116]
2 x [i=7]
6 x [i=7, i=115]
9 x [i=8, i=114]
2 x [i=8, i=120]
8 x [i=9, i=113]
6 x [i=10, i=112]
1 x [i=10, i=116]
5 x [i=11, i=117]
10 x [i=12, i=111]
7 x [i=13, i=109]
1 x [i=13, i=111]
9 x [i=14, i=108]
2 x [i=14, i=113]
7 x [i=15, i=107]
6 x [i=16, i=110]
1 x [i=16, i=118]
1 x [i=17, i=105]
4 x [i=17, i=107]
1 x [i=17, i=119]
10 x [i=18, i=106]
2 x [i=19, i=103]
7 x [i=19, i=105]
11 x [i=20, i=103]
7 x [i=21, i=102]
6 x [i=22, i=100]
3 x [i=22, i=104]
11 x [i=23, i=101]
9 x [i=24, i=99]
1 x [i=24, i=104]
6 x [i=25, i=97]
2 x [i=25, i=98]
6 x [i=26, i=96]
4 x [i=27, i=95]
7 x [i=28, i=94]
1 x [i=28, i=96]
2 x [i=28, i=104]
6 x [i=29, i=93]
9 x [i=30, i=92]
2 x [i=30, i=93]
12 x [i=31, i=98]
4 x [i=32, i=91]
8 x [i=33, i=89]
2 x [i=33, i=93]
7 x [i=34, i=90]
10 x [i=35, i=87]
3 x [i=35, i=91]
7 x [i=36, i=86]
6 x [i=37, i=85]
10 x [i=38, i=88]
1 x [i=38, i=91]
9 x [i=39, i=84]
2 x [i=40, i=82]
3 x [i=40, i=83]
1 x [i=40, i=85]
2 x [i=40, i=86]
1 x [i=40, i=93]
7 x [i=41, i=81]
2 x [i=41, i=113]
11 x [i=42, i=80]
7 x [i=43, i=79]
4 x [i=43, i=80]
6 x [i=44, i=78]
2 x [i=44, i=80]
6 x [i=45, i=77]
3 x [i=46, i=76]
4 x [i=46, i=77]
1 x [i=46, i=78]
2 x [i=47, i=75]
5 x [i=47, i=76]
7 x [i=48, i=74]
4 x [i=48, i=75]
7 x [i=49, i=73]
1 x [i=49, i=74]
7 x [i=50, i=72]
1 x [i=50, i=74]
9 x [i=51, i=71]
1 x [i=51, i=77]
6 x [i=52, i=70]
8 x [i=53, i=69]
3 x [i=54, i=68]
3 x [i=54, i=70]
3 x [i=55, i=67]
7 x [i=56, i=66]
8 x [i=57, i=65]
2 x [i=57, i=66]
2 x [i=58]
5 x [i=58, i=64]
1 x [i=58, i=69]
2 x [i=58, i=79]
4 x [i=59, i=63]
3 x [i=60, i=62]
4 x [i=60, i=63]
2 x [i=61, i=62]
5 x [i=61, i=61]
1 x [i=62]
